994
994
1021
1021
1021
981
972
981
981
998
998
1015
1015
1015
1014
1014
1014
988
988
988
988
1048
1048
1046
1046
977
977
977
977
928
897
897
922
928
928
991
843
843
843
937
983
1001
1014
1014
1015
1015
961
961
961
946
972
954
954
880
954
954
905
905
905
905
905
945
945
923
923
923
923
968
962
962
962
962
943
943
871
871
852
943
978
978
953
895
895
910
910
910
910
931
916
916
951
913
951
938
936
936
936
927
849
849
927
933
933
873
933
945
963
964
964
964
888
888
921
900
900
900
891
900
941
944
911
911
911
963
873
873
821
821
821
821
851
938
952
952
944
944
958
958
958
973
974
974
1015
1021
1021
1020
1037
1053
1038
924
924
909
909
909
909
952
951
981
884
893
893
893
979
963
952
948
875
875
875
875
875
979
967
967
890
967
967
967
957
962
939
942
942
942
942
1003
981
1005
950
950
860
860
860
860
898
898
898
904
950
897
